60 47 17 43 5 9 59 
51 1 64 44 16 12 42 







































































































4 22 14 71 31 32 35 
8 0 72 62 40 48 37 67 
76 41 63 15 7 10 61 65 
28 45 39 21 66 70 75 
33 54 23 34 27 55 69 30 
3 49 58 36 73 38 74 13 

29 26 68 6 50 53 19 2 18 

56 11 24 20 25 52 46 57 
